n_res = 2;
rcap = [11, 15];
rtype = [1, 1];
n_tasks = 14;
modes = [ {1, 2, 3}, {4, 5, 6}, {7, 8, 9}, {10, 11, 12}, {13, 14, 15}, {16, 17, 18}, {19, 20, 21}, {22, 23, 24}, {25, 26, 27}, {28, 29, 30}, {31, 32, 33}, {34, 35, 36}, {37, 38, 39}, {40, 41, 42} ];
succ = [ {5, 6, 9}, {5, 11, 12}, {4, 9}, {6, 8}, {10, 14}, {7, 12}, {10, 14}, {10, 11, 12}, {13}, {13}, {13, 14}, {}, {}, {} ];
n_opt = 42;
dur = [1, 1, 7, 1, 2, 10, 1, 4, 6, 4, 9, 10, 2, 2, 8, 4, 8, 9, 2, 5, 6, 1, 2, 6, 4, 7, 10, 3, 4, 9, 5, 7, 9, 3, 7, 7, 2, 4, 6, 1, 8, 9];
rreq = [|  0,  9,  7,  6,  0,  4,  0,  7,  6,  0,  8,  2, 10,  0,  8,  0,  8,  0,  0,  0,  3,  0,  0,  0,  0,  0,  0,  6,  0,  0,  7,  5,  0,  4,  0,  2,  0,  5,  0,  0,  0,  9
        |  4,  0,  0,  0,  7,  0,  9,  0,  0,  9,  0,  0,  0,  6,  0,  5,  0,  4,  8,  6,  0,  9,  7,  4, 10,  8,  3,  0,  3,  1,  0,  0,  8,  0,  5,  0, 10,  0,  4,  9,  1,  0 |];
